434 433 432 430 431 429 428 427 426 382 425 424 423 422 421 420 416 415 414 413 352 351 350 349 348 347 346 345 344 343 342 341 340 339 338 337 336 333 335 334 283 284 285 286 287 280 281 282 279 278 277 276 290 289 288 332 331 330 291 292 275 274 273 272 271 268 269 270 293 294 295 296 267 266 265 264 263 262 258 259 261 260 257 256 255 253 254 252 251 250 249 248 247 246 245 244 243 242 241 300 299 298 297 321 320 319 317 318 305 306 304 303 307 308 309 505 504 503 502 498 501 500 499 452 453 440 441 446 448 449 450 451 311 310 312 313 316 314 315 322 323 324 325 326 327 328 329 366 367 365 368 369 370 398 397 407 408 406 405 409 404 403 400 399 364 363 362 361 359 358 354 353 355 357 360 401 402 356 412 411 417 419 418 410 384 383 385 386 387 388 389 390 392 391 393 394 395 396 371 372 373 374 375 376 377 378 379 380 381 447 445 444 443 442 439 454 455 456 457 458 459 460 461 462 463 466 467 465 464 496 497 519 518 520 517 516 515 514 522 521 523 526 491 492 525 524 493 490 529 528 527 512 513 511 510 509 506 507 508 302 301 240 239 238 237 236 235 234 232 233 530 531 489 532 533 488 534 487 486 485 484 535 536 483 481 482 475 476 477 478 479 480 537 539 538 540 187 188 186 182 178 177 176 175 174 173 172 170 171 169 180 179 181 183 185 184 197 196 195 194 193 192 191 190 227 228 229 230 231 189 226 225 219 218 220 221 222 224 223 217 216 215 214 213 212 211 210 209 208 207 206 205 198 199 200 201 202 204 203 165 164 166 167 163 168 162 161 160 159 156 155 154 153 157 158 145 144 143 142 146 147 148 152 149 150 151 141 140 139 138 137 136 135 134 133 132 131 130 129 128 127 126 125 124 69 70 68 67 66 65 72 71 123 122 121 120 118 119 73 74 75 77 76 64 63 61 60 59 58 57 82 81 80 79 62 78 88 89 90 87 86 85 84 51 50 52 83 56 55 53 54 49 48 47 44 43 42 39 40 41 557 556 555 45 46 91 92 93 94 97 95 96 98 554 553 552 99 100 101 102 103 104 105 106 117 116 115 114 113 112 111 110 109 108 107 542 541 543 544 547 546 545 548 549 551 550 559 558 560 561 562 563 564 565 566 567 27 26 28 29 34 33 35 38 37 36 32 30 31 22 25 24 21 23 12 13 14 15 16 11 10 9 8 17 18 19 20 568 569 570 474 473 472 494 495 471 470 469 468 571 573 572 7 6 5 0 4 1 2 3 437 438 436 435